16150 10800
16800 10950
15110 10053
13992 10052
13100 10800
12600 10950
12050 10950
11400 10800
10360 10053
9242 10052
8350 10800
7850 10950
7300 10950
6650 10800
5610 10053
5400 11650
4700 11650
3100 10950
3600 10800
4492 10052
5400 8450
4700 8450
4493 7102
3100 7250
3600 6950
4700 5750
5400 5750
5608 7103
6650 6950
7300 7250
7850 7250
8350 6950
9243 7102
10358 7103
11400 6950
12050 7250
12600 7250
13100 6950
